data;

param n:=29;
param p:=4;
param r:=[1] 0 [2] 3 [3] 7 [4] 0 [5] 15 [6] 11 [7] 13 [8] 13 [9] 7 [10] 31 [11] 39 [12] 3 [13] 24 [14] 30 [15] 37 [16] 2 [17] 13 [18] 49 [19] 46 [20] 74 [21] 4 [22] 9 [23] 17 [24] 34 [25] 34 [26] 56 [27] 101 [28] 33 [29] 4 ;
param w:=[1] 84 [2] 4 [3] 40 [4] 86 [5] 35 [6] 56 [7] 82 [8] 87 [9] 52 [10] 37 [11] 33 [12] 87 [13] 13 [14] 90 [15] 76 [16] 65 [17] 83 [18] 1 [19] 23 [20] 91 [21] 25 [22] 34 [23] 82 [24] 65 [25] 48 [26] 63 [27] 44 [28] 43 [29] 45 ;

end;
